decision_x1=[0,2];
decision_x2=[0,2];
decision_x3=[0,2];
decision_x4=[0,2];
decision_x5=[0,2];
decision_x6=[0,2];
decision_x7=[0,2];
decision_x8=[0,2];
decision_x9=[0,2];
decision_x10=[0,2];
random_y1=[0,2];
random_y2=[0,2];
constraint_x4_x2=[
0,1,5.2|
0,2,9|
1,0,2.9|
1,2,7.9|
2,0,8.2|
2,1,1.9|
];
constraint_x4_x3=[
0,1,2.9|
0,2,3|
1,0,4.3|
1,2,2.4|
2,0,6.2|
2,1,5.1|
];
constraint_x6_x3=[
0,1,8.2|
0,2,4.2|
1,0,7.5|
1,2,6.5|
2,0,0.1|
2,1,0.86|
];
constraint_x6_x5=[
0,1,2.8|
0,2,9.3|
1,0,4.2|
1,2,6.1|
2,0,9.6|
2,1,8.1|
];
constraint_x7_x1=[
0,1,8.3|
0,2,8.1|
1,0,5.5|
1,2,8.7|
2,0,6.7|
2,1,3.4|
];
constraint_x7_x5=[
0,1,3.7|
0,2,8.2|
1,0,8.3|
1,2,1.8|
2,0,0.55|
2,1,3.5|
];
constraint_x7_x6=[
0,1,9.8|
0,2,8.4|
1,0,9.8|
1,2,6.5|
2,0,4.2|
2,1,7.8|
];
constraint_x8_x2=[
0,1,6.4|
0,2,6.3|
1,0,1.1|
1,2,7.8|
2,0,1.8|
2,1,5.1|
];
constraint_x8_x4=[
0,1,1.5|
0,2,2.7|
1,0,6.4|
1,2,8|
2,0,1.7|
2,1,5.1|
];
constraint_x8_x5=[
0,1,2.3|
0,2,9.1|
1,0,9.5|
1,2,1.8|
2,0,1.1|
2,1,6.8|
];
constraint_x8_x6=[
0,1,6.4|
0,2,6.4|
1,0,6|
1,2,2.1|
2,0,3.3|
2,1,5.9|
];
constraint_x9_x1=[
0,1,4.7|
0,2,6.2|
1,0,1.3|
1,2,5.4|
2,0,1.9|
2,1,0.49|
];
constraint_x9_x2=[
0,1,3.8|
0,2,0.65|
1,0,2.2|
1,2,4.5|
2,0,7.6|
2,1,0.17|
];
constraint_x9_x4=[
0,1,4.9|
0,2,1.8|
1,0,1.3|
1,2,7.9|
2,0,4.5|
2,1,0.49|
];
constraint_x9_x5=[
0,1,2.6|
0,2,2.5|
1,0,1.9|
1,2,2.6|
2,0,3.9|
2,1,6.9|
];
constraint_x9_x6=[
0,1,1.2|
0,2,5.5|
1,0,9.7|
1,2,3.7|
2,0,9.1|
2,1,0.39|
];
constraint_x10_x1=[
0,1,6|
0,2,7.3|
1,0,0.32|
1,2,3.3|
2,0,1.2|
2,1,9.1|
];
constraint_x10_x3=[
0,1,7.4|
0,2,3.5|
1,0,8|
1,2,9.2|
2,0,0.82|
2,1,3.4|
];
constraint_x10_x4=[
0,1,9.3|
0,2,5.4|
1,0,2.7|
1,2,8.1|
2,0,3.6|
2,1,5.9|
];
constraint_x10_x6=[
0,1,6.6|
0,2,5.6|
1,0,5.6|
1,2,8.2|
2,0,9.9|
2,1,9.8|
];
constraint_x10_x7=[
0,1,1.7|
0,2,0.85|
1,0,0.045|
1,2,0.98|
2,0,3.8|
2,1,9.7|
];
constraint_x10_x8=[
0,1,8.3|
0,2,4.3|
1,0,3.6|
1,2,7.7|
2,0,6|
2,1,4.4|
];
constraint_x10_x9=[
0,1,2.1|
0,2,9|
1,0,8.4|
1,2,8.4|
2,0,6.8|
2,1,5.8|
];
constraint_x1_y1=[
0,0,2.8|
0,1,9.2|
0,2,2.7|
1,0,5.6|
1,1,2.8|
1,2,0.089|
2,0,4.8|
2,1,5.9|
2,2,1.1|
];
constraint_x2_y2=[
0,0,1.6|
0,1,8.2|
0,2,9.7|
1,0,1.4|
1,1,3|
1,2,8.1|
2,0,2.4|
2,1,0.69|
2,2,5.6|
];
initial_distribution_y1=[0.59,0.18,0.23];
initial_distribution_y2=[0.17,0.25,0.59];
transition_y1=[
0.45,0.35,0.2|
0.43,0.33,0.25|
0.3,0.15,0.55|
];
transition_y2=[
0.098,0.19,0.71|
0.16,0.54,0.3|
0.034,0.68,0.28|
];
